Route 1: 20 21 25 27 29 30 28 26 23 22 24 49
Route 2: 67 65 63 62 74 72 61 64 68 66 69
Route 3: 5 3 7 8 10 11 9 6 4 2 1 75
Route 4: 47 42 41 40 44 45 48 51 50 52 46 43
Route 5: 90 87 86 89 83 84 85 88 91 95 98
Route 6: 31 33 32 35 37 38 39 36 34
Route 7: 13 17 18 19 15 16 14 12 99
Route 8: 55 54 53 56 58 60 57 59
Route 9: 78 76 71 70 73 77 79 80 82 81
Route 10: 96 94 92 93 97 100
Vehicles: 10
Distance: 974.00
